p tw 40 230
e 0 1
e 0 6
e 0 7
e 0 9
e 0 10
e 0 16
e 0 22
e 0 26
e 0 38
e 0 39
e 1 2
e 1 18
e 1 24
e 1 27
e 1 28
e 1 31
e 1 34
e 1 35
e 1 38
e 2 3
e 2 11
e 2 13
e 2 14
e 2 17
e 2 18
e 2 34
e 2 39
e 3 6
e 3 9
e 3 16
e 3 17
e 3 20
e 3 31
e 3 35
e 3 37
e 3 38
e 4 6
e 4 12
e 4 17
e 4 18
e 4 20
e 4 23
e 4 24
e 4 29
e 4 30
e 4 32
e 4 38
e 4 39
e 5 12
e 5 17
e 5 19
e 5 20
e 5 22
e 5 24
e 5 31
e 5 33
e 5 34
e 6 8
e 6 13
e 6 16
e 6 21
e 6 24
e 6 25
e 6 26
e 6 31
e 6 32
e 6 33
e 6 34
e 6 35
e 6 38
e 7 14
e 7 16
e 7 20
e 7 21
e 7 35
e 7 38
e 8 15
e 8 17
e 8 25
e 8 27
e 8 28
e 8 30
e 8 31
e 8 32
e 8 34
e 8 35
e 8 37
e 9 14
e 9 18
e 9 21
e 9 25
e 9 26
e 9 27
e 9 35
e 10 11
e 10 19
e 10 20
e 10 26
e 10 27
e 10 28
e 10 31
e 10 34
e 10 39
e 11 12
e 11 13
e 11 16
e 11 20
e 11 35
e 11 36
e 12 14
e 12 15
e 12 16
e 12 17
e 12 21
e 12 26
e 12 27
e 12 29
e 12 33
e 12 37
e 13 16
e 13 17
e 13 19
e 13 22
e 13 27
e 13 31
e 13 36
e 14 17
e 14 20
e 14 23
e 14 25
e 14 33
e 14 34
e 15 16
e 15 19
e 15 21
e 15 30
e 15 31
e 15 32
e 15 33
e 15 36
e 15 37
e 16 20
e 16 22
e 16 25
e 16 26
e 16 28
e 16 38
e 17 21
e 17 27
e 17 29
e 17 36
e 17 39
e 18 20
e 18 21
e 18 27
e 19 20
e 19 21
e 19 22
e 19 23
e 19 24
e 19 34
e 20 22
e 20 23
e 20 24
e 20 26
e 20 28
e 20 29
e 20 30
e 20 32
e 20 33
e 20 34
e 20 35
e 20 37
e 20 38
e 21 24
e 21 27
e 21 29
e 21 30
e 21 32
e 21 35
e 21 36
e 21 38
e 22 26
e 22 27
e 22 31
e 22 35
e 22 36
e 22 37
e 22 38
e 22 39
e 23 24
e 23 27
e 23 33
e 23 37
e 23 38
e 24 25
e 24 30
e 24 38
e 25 27
e 25 28
e 25 34
e 25 36
e 26 27
e 26 28
e 26 38
e 27 29
e 27 31
e 27 32
e 27 34
e 27 35
e 27 36
e 27 39
e 28 29
e 28 31
e 28 38
e 28 39
e 29 30
e 29 32
e 29 33
e 29 35
e 29 37
e 29 39
e 30 39
e 31 35
e 31 39
e 32 35
e 33 35
e 34 35
e 34 36
e 34 37
